Cost: 353
0-4-45-29-15-13-27-0
0-46-8-14-35-7-26-0
0-51-44-32-40-17-0
0-23-24-18-25-9-12-0
0-30-2-22-1-33-0
Cost: 354
0-26-12-9-25-32-0
0-51-23-24-44-40-17-0
0-46-8-19-14-35-7-0
0-30-2-22-1-33-0
0-4-45-29-15-13-27-0
Cost: 354
0-26-12-9-25-32-0
0-51-23-24-44-40-17-0
0-46-8-19-14-35-7-0
0-30-2-22-1-33-0
0-4-45-29-15-13-27-0
Cost: 354
0-26-12-9-25-32-0
0-51-23-24-44-40-17-0
0-46-8-19-14-35-7-0
0-30-2-22-1-33-0
0-4-45-29-15-13-27-0
Cost: 353
0-12-9-25-18-24-23-0
0-51-44-32-40-17-0
0-30-2-22-1-33-0
0-27-13-15-29-45-4-0
0-26-7-35-14-8-46-0
Cost: 354
0-26-12-9-25-32-0
0-51-23-24-44-40-17-0
0-46-8-19-14-35-7-0
0-30-2-22-1-33-0
0-4-45-29-15-13-27-0
Cost: 353
0-27-13-15-29-45-4-0
0-30-2-22-1-33-0
0-23-24-18-25-9-12-0
0-51-44-32-40-17-0
0-26-7-14-8-46-34-0
Cost: 353
0-12-9-25-18-24-23-0
0-51-44-32-40-17-0
0-30-2-22-1-33-0
0-26-7-14-35-8-46-0
0-27-13-15-29-45-4-0
Cost: 354
0-26-12-9-25-32-0
0-51-23-24-44-40-17-0
0-46-8-19-14-35-7-0
0-30-2-22-1-33-0
0-4-45-29-15-13-27-0
Cost: 353
0-27-13-15-29-45-4-0
0-26-7-14-8-46-34-0
0-12-9-25-18-24-23-0
0-30-2-22-1-33-0
0-17-40-32-44-51-0
Cost: 353
0-27-13-15-29-45-4-0
0-26-7-14-8-46-34-0
0-12-9-25-18-24-23-0
0-30-2-22-1-33-0
0-17-40-32-44-51-0
Cost: 353
0-30-2-22-1-33-0
0-4-45-29-15-13-27-0
0-23-24-18-25-9-12-0
0-17-40-32-44-51-0
0-26-7-35-14-8-46-0
Cost: 353
0-4-45-29-15-13-27-0
0-23-24-18-25-9-12-0
0-46-8-35-14-7-26-0
0-17-40-32-44-51-0
0-30-2-22-1-33-0
Cost: 354
0-26-12-9-25-32-0
0-51-23-24-44-40-17-0
0-46-8-19-14-35-7-0
0-30-2-22-1-33-0
0-4-45-29-15-13-27-0
Cost: 354
0-26-12-9-25-32-0
0-51-23-24-44-40-17-0
0-46-8-19-14-35-7-0
0-30-2-22-1-33-0
0-4-45-29-15-13-27-0
Cost: 354
0-26-12-9-25-32-0
0-51-23-24-44-40-17-0
0-46-8-19-14-35-7-0
0-30-2-22-1-33-0
0-4-45-29-15-13-27-0
Cost: 353
0-33-1-22-2-30-0
0-26-7-14-8-46-34-0
0-4-45-29-15-13-27-0
0-23-24-18-25-9-12-0
0-51-44-32-40-17-0
Cost: 353
0-17-40-32-44-51-0
0-46-8-35-14-7-26-0
0-23-24-18-25-9-12-0
0-4-45-29-15-13-27-0
0-33-1-22-2-30-0
Cost: 353
0-33-1-22-2-30-0
0-51-44-32-40-17-0
0-46-8-14-35-7-26-0
0-12-9-25-18-24-23-0
0-27-13-15-29-45-4-0
Cost: 353
0-30-2-22-1-33-0
0-4-45-29-15-13-27-0
0-23-24-18-25-9-12-0
0-26-7-14-35-8-46-0
0-51-44-32-40-17-0
Cost: 353
0-4-45-29-15-13-27-0
0-34-46-8-14-7-26-0
0-51-44-32-40-17-0
0-23-24-18-25-9-12-0
0-30-2-22-1-33-0
Cost: 353
0-27-13-15-29-45-4-0
0-26-7-14-8-46-34-0
0-33-1-22-2-30-0
0-17-40-32-44-51-0
0-12-9-25-18-24-23-0
Cost: 353
0-12-9-25-18-24-23-0
0-33-1-22-2-30-0
0-26-7-14-35-8-46-0
0-17-40-32-44-51-0
0-4-45-29-15-13-27-0
Cost: 353
0-27-13-15-29-45-4-0
0-26-7-14-8-46-34-0
0-33-1-22-2-30-0
0-17-40-32-44-51-0
0-12-9-25-18-24-23-0
Cost: 353
0-17-40-32-44-51-0
0-46-8-35-14-7-26-0
0-23-24-18-25-9-12-0
0-4-45-29-15-13-27-0
0-33-1-22-2-30-0
Cost: 354
0-26-12-9-25-32-0
0-51-23-24-44-40-17-0
0-46-8-19-14-35-7-0
0-30-2-22-1-33-0
0-4-45-29-15-13-27-0
Cost: 353
0-51-44-32-40-17-0
0-26-7-14-8-46-34-0
0-33-1-22-2-30-0
0-27-13-15-29-45-4-0
0-12-9-25-18-24-23-0
Cost: 354
0-34-46-8-19-14-7-0
0-27-13-15-29-45-4-0
0-32-25-9-12-26-0
0-51-23-24-44-40-17-0
0-30-2-22-1-33-0
Cost: 355
0-4-27-13-15-29-45-0
0-12-9-25-32-17-0
0-30-2-22-1-33-0
0-51-23-49-24-44-40-0
0-26-7-14-19-8-34-0
Cost: 353
0-51-44-32-40-17-0
0-34-46-8-14-7-26-0
0-23-24-18-25-9-12-0
0-30-2-22-1-33-0
0-4-45-29-15-13-27-0
Cost: 353
0-4-45-29-15-13-27-0
0-17-40-32-44-51-0
0-30-2-22-1-33-0
0-34-46-8-14-7-26-0
0-23-24-18-25-9-12-0
